c read Graph
c width = 131
c time = 82 ms
c width = 12
c time = 149 ms
c width = 11
c time = 212 ms
c width = 10
c time = 1159 ms
c width = 10
c time = 4943 ms
s td 131 11 144
b 1 1 2 17
b 2 2 3 17 18
b 3 14 15 31 32
b 4 3 17 18 33
b 5 14 31 32 48
b 6 97 113 114 130
b 7 112 127 128 143
b 8 97 114 130 131
b 9 112 127 142 143
b 10 3 4 5 20
b 11 3 5 19 20 34 49
b 12 5 19 20 34 36 49 51
b 13 5 20 34 36 49 51 66
b 14 5 20 36 49 51 66 81
b 15 5 20 22 36 37 51 66 81
b 16 5 22 36 37 51 53 66 68 81
b 17 5 22 37 51 53 66 68 81 83
b 18 51 66 67 68 83
b 19 5 22 37 53 66 68 81 83 100 117 134
b 20 5 22 37 53 68 83 85 100 117 134
b 21 5 22 37 53 68 85 100 102 117 134
b 22 5 22 37 53 68 85 102 117 119 134
b 23 5 22 37 53 68 70 85 102 119 134
b 24 53 68 69 70 85
b 25 5 22 37 53 54 70 85 102 119 134
b 26 5 22 37 39 54 70 85 102 119 134
b 27 22 37 38 39 54
b 28 5 22 39 54 70 85 87 102 119 134
b 29 5 22 39 54 70 87 102 104 119 134
b 30 5 22 39 54 70 71 87 104 119 134
b 31 5 22 39 54 56 71 87 104 119 134
b 32 39 54 55 56 71
b 33 5 22 39 56 71 87 88 104 119 134
b 34 5 22 39 56 71 73 88 104 119 134
b 35 5 9 22 24 39 56 73 88 104 119 134
b 36 9 24 39 41 56 73 88 104 119 134
b 37 24 39 40 41 56
b 38 9 24 26 41 56 73 88 104 119 134
b 39 9 26 41 56 73 88 104 119 121 134 138
b 40 9 26 41 56 73 88 104 105 121 134 138
b 41 9 26 41 56 73 88 105 121 122 134 138
b 42 9 26 41 56 58 73 88 105 122 138
b 43 41 56 57 58 73
b 44 104 119 121 134 136 138
b 45 121 136 137 138
b 46 119 134 135 136
b 47 104 119 120 121 136
b 48 9 24 25 26 41
b 49 5 7 9 22 24 39
b 50 5 6 7 22
b 51 7 22 23 24 39
b 52 7 8 9 24
b 53 56 71 72 73 88
b 54 87 102 103 104 119
b 55 70 85 86 87 102
b 56 102 117 118 119 134
b 57 85 100 101 102 117
b 58 68 83 84 85 100
b 59 66 81 83 100 117 132 134
b 60 66 81 83 100 115 117 132
b 61 100 115 116 117 132
b 62 66 81 83 98 100 115 132
b 63 83 98 99 100 115
b 64 81 98 115 131 132
b 65 81 97 98 115 131
b 66 97 98 114 115 131
b 67 66 81 82 83 98
b 68 117 132 133 134
b 69 36 51 52 53 68
b 70 5 20 21 22 37
b 71 49 65 66 81
b 72 34 49 50 51 66
b 73 19 34 35 36 51
b 74 3 19 33 34 49
b 75 3 18 19 33 34
b 76 64 79 80 96
b 77 9 10 11 26
b 78 11 12 13 28
b 79 11 26 27 28 43
b 80 62 77 78 79 94
b 81 123 138 139 140
b 82 11 13 28 45 62 64 79
b 83 28 43 44 45 60
b 84 45 60 61 62 77
b 85 43 58 59 60 75
b 86 58 73 74 75 90
b 87 60 75 76 77 92
b 88 75 90 91 92 107
b 89 90 105 106 107 122
b 90 11 28 45 62 64 79 96
b 91 9 26 41 58 73 88 90 105 122 138
b 92 107 122 123 124 138 140
b 93 9 26 41 58 73 90 105 107 122 138
b 94 9 26 41 58 73 75 90 107 122 138
b 95 9 26 41 43 58 75 90 107 122 138
b 96 9 11 26 43 58 75 90 107 122 138
b 97 11 26 28 43 58 75 90 107 122 138
b 98 11 28 43 58 60 75 90 107 122 138
b 99 11 28 43 45 60 75 90 107 122 138
b 100 11 28 45 60 75 90 92 107 122 138
b 101 11 28 45 60 75 77 92 107 122 138
b 102 11 28 45 60 62 77 92 107 122 138
b 103 11 28 45 62 77 79 92 96 107 122 138
b 104 62 77 79 92 94 96 107 122 138
b 105 77 79 92 94 96 107 109 122 138
b 106 79 92 94 96 107 109 122 124 138
b 107 79 94 96 107 109 122 124 138 140
b 108 107 109 122 124 138 140
b 109 26 41 42 43 58
b 110 73 88 89 90 105
b 111 79 94 96 109 124 126 140 142
b 112 109 124 125 126 140 142
b 113 125 140 141 142
b 114 79 94 96 109 111 126 142
b 115 96 111 112 126 142
b 116 111 112 126 127 142
b 117 94 109 110 111 126
b 118 79 94 95 96 111
b 119 77 92 93 94 109
b 120 92 107 108 109 124
b 121 13 28 45 47 62 64 79
b 122 47 62 63 64 79
b 123 13 28 30 45 47 62 64
b 124 13 30 47 48 64
b 125 13 14 30 47 48
b 126 14 30 31 47 48
b 127 13 28 29 30 45
b 128 30 45 46 47 62
b 129 128 143 144
b 130 113 129 130
b 131 15 16 32
1 2
2 4
3 131
3 5
4 75
5 126
6 130
6 8
7 129
7 9
8 66
9 116
10 11
11 74
11 12
12 73
12 13
13 72
13 14
14 71
14 15
15 70
15 16
16 69
16 17
17 19
17 18
19 59
19 20
20 58
20 21
21 57
21 22
22 56
22 23
23 25
23 24
25 26
26 28
26 27
28 55
28 29
29 54
29 30
30 31
31 33
31 32
33 34
34 53
34 35
35 49
35 36
36 38
36 37
38 48
38 39
39 44
39 40
40 41
41 42
42 91
42 43
44 46
44 47
44 45
49 50
49 51
49 52
59 60
59 68
60 61
60 62
62 64
62 67
62 63
64 65
65 66
74 75
76 90
77 96
78 82
79 97
80 104
81 92
82 121
82 90
83 99
84 102
85 98
86 94
87 101
88 100
89 93
90 103
91 110
91 93
92 108
93 94
94 95
95 109
95 96
96 97
97 98
98 99
99 100
100 101
101 102
102 103
103 104
104 105
105 119
105 106
106 120
106 107
107 111
107 108
111 114
111 112
112 113
114 118
114 117
114 115
115 116
121 122
121 123
123 124
123 127
123 128
124 125
125 126
